97 100
23 17 1
15 13 1
2 3 1
29 18 1
9 32 1
9 29 1
1 4 1
5 1 1
17 4 1
10 9 1
3 24 1
28 34 1
22 34 1
4 32 1
6 13 2
35 8 2
6 25 1
20 13 1
15 2 1
11 2 1
2 31 1
33 16 1
17 34 1
21 34 1
17 14 1
26 15 1
7 22 1
4 31 1
1 15 1
30 29 2
28 33 1
14 1 1
20 21 1
18 20 1
28 6 1
12 32 1
11 26 1
10 30 1
6 28 1
6 17 1
29 4 1
2 8 1
2 27 1
15 32 1
1 22 1
2 10 1
35 28 1
2 1 1
27 8 1
2 32 1
5 35 1
19 25 1
7 20 1
10 18 1
13 26 1
13 28 1
17 21 1
9 12 1
21 21 1
26 9 1
7 18 1
32 33 1
2 16 1
7 8 1
9 30 1
15 7 1
9 18 1
23 11 1
30 18 1
14 12 1
5 12 1
12 14 1
20 26 1
24 32 1
31 29 1
28 24 1
9 2 1
18 29 1
3 7 1
32 27 1
16 10 1
21 1 1
31 17 1
30 32 1
13 29 1
24 5 1
11 3 1
7 7 1
18 13 1
3 5 1
15 6 1
15 5 1
35 22 1
13 18 1
3 35 1
35 24 1
14 14 1
40 40 
40 40 
40 40 
40 40 
40 40 
40 40 
40 40 
40 40 
40 40 
40 40 
40 40 
40 40 
40 40 
40 40 
40 40 
40 40 
40 40 
40 40 
40 40 
40 40 
40 40 
40 40 
40 40 
40 40 
40 40 
40 40 
40 40 
40 40 
40 40 
40 40 
40 40 
40 40 
40 40 
40 40 
40 40 
40 40 
40 40 
40 40 
40 40 
40 40 
40 40 
40 40 
40 40 
40 40 
40 40 
40 40 
40 40 
40 40 
40 40 
40 40 
40 40 
40 40 
40 40 
40 40 
40 40 
40 40 
40 40 
40 40 
40 40 
40 40 
40 40 
40 40 
40 40 
40 40 
40 40 
40 40 
40 40 
40 40 
40 40 
40 40 
40 40 
40 40 
40 40 
40 40 
40 40 
40 40 
40 40 
40 40 
40 40 
40 40 
40 40 
40 40 
40 40 
40 40 
40 40 
40 40 
40 40 
40 40 
40 40 
40 40 
40 40 
40 40 
40 40 
40 40 
40 40 
40 40 
40 40 
40 40 
40 40 
40 40 
